100
128
51
8
32
49
50
11
39
12
12
44
17
56
12
2
50
25
29
36
64
63
35
17
34
62
48
44
47
57
64
40
45
57
30
13
15
21
45
4
56
17
33
40
27
30
26
24
24
4
48
45
63
48
61
33
5
14
18
23
58
54
25
36
23
39
49
46
26
39
15
1
44
33
25
24
16
23
15
56
25
37
44
2
7
2
27
1
44
28
4
32
20
30
48
64
44
64
23
5
64
62